Optimize a model with 2501 rows, 2600 columns and 16758 nonzeros
Model has 1 quadratic constraint
Coefficient statistics:
  Matrix range    [1e+00, 5e+01]
  Objective range [1e+02, 7e+02]
  Bounds range    [1e+00, 5e+01]
  RHS range       [1e+00, 5e+01]
Presolve removed 0 rows and 52 columns
Presolve time: 0.27s
Presolved: 4903 rows, 4949 columns, 26362 nonzeros
Variable types: 0 continuous, 4949 integer (4900 binary)

Root relaxation: objective 2.510000e+02, 89 iterations, 0.03 seconds

    Nodes    |    Current Node    |     Objective Bounds      |     Work
 Expl Unexpl |  Obj  Depth IntInf | Incumbent    BestBd   Gap | It/Node Time

     0     0  251.00000    0   43          -  251.00000      -     -    0s
     0     0  251.00000    0   43          -  251.00000      -     -    0s
     0     0  251.00000    0   42          -  251.00000      -     -    0s
     0     0  251.00000    0   46          -  251.00000      -     -    0s
     0     0  251.00000    0   42          -  251.00000      -     -    0s
     0     0  251.00000    0   42          -  251.00000      -     -    0s
     0     0  251.00000    0   44          -  251.00000      -     -    0s
     0     0  251.00000    0   42          -  251.00000      -     -    1s
     0     0  251.00000    0   42          -  251.00000      -     -    1s
H    0     0                    2970.0000000  251.00000  91.5%     -    1s
     0     2  251.00000    0   42 2970.00000  251.00000  91.5%     -    2s
   536   538  251.00000  536   42 2970.00000  251.00000  91.5%   2.0    5s
H  972   972                    2932.0000000  251.00000  91.4%   1.5    7s
H  999   999                    2752.0000000  251.00000  90.9%   1.5    7s
H 1053  1053                    2731.0000000  251.00000  90.8%   1.5    9s
  1213  1215  251.00000 1213   43 2731.00000  251.00000  90.8%   1.4   10s
  2062  2064  251.00000 2062   46 2731.00000  251.00000  90.8%   1.3   15s
H 2522  2076                    2727.0000000 2694.91111  1.18%   5.7   18s
* 2575  1948              37    2723.0000000 2695.37408  1.01%   6.3   18s

Cutting planes:
  Learned: 2

Explored 2871 nodes (27416 simplex iterations) in 19.59 seconds
Thread count was 1 (of 4 available processors)

Optimal solution found (tolerance 1.00e-04)
Best objective 2.723000000000e+03, best bound 2.723000000000e+03, gap 0.0%
2723
(2,0) (0,48) (9,2) (6,27) (33,6) (7,16) (25,7) (34,8) (8,45) (27,9) (12,14) (44,12) (14,19) (16,21) (17,33) (49,17) (19,25) (21,49) (35,22) (22,44) (29,35) (45,29) (39,34) (48,39) 
